
===== New CPLEX run =====
Instance: /home/yorig/tuner/mpils-tests/instances/miplib/easy/lotsize.mps
Config: /scratch/yorig/mpils-results-grid-ticks-10000/easy/16proc/seed-9/4_lotsize_seed-9_20260425_202405/iterated_local_search/run_2_worker_8/ils_config_9385449691273669297.prm
========================

Selected objective sense:  MINIMIZE
Selected objective  name:  R1921
Selected RHS        name:  B
Selected bound      name:  BOUND
Version identifier: 22.1.2.0 | 2024-11-26 | 0edbb82fd
CPXPARAM_Threads                                 8
CPXPARAM_Parallel                                1
CPXPARAM_MIP_Cuts_Cliques                        1
CPXPARAM_MIP_Cuts_FlowCovers                     1
CPXPARAM_MIP_Cuts_Implied                        2
CPXPARAM_MIP_Cuts_GUBCovers                      -1
CPXPARAM_MIP_Limits_GomoryCand                   50
CPXPARAM_MIP_Cuts_Gomory                         -1
CPXPARAM_MIP_Cuts_PathCut                        -1
CPXPARAM_MIP_Cuts_MIRCut                         1
CPXPARAM_MIP_Cuts_Disjunctive                    -1
CPXPARAM_Emphasis_MIP                            4
CPXPARAM_DetTimeLimit                            10000
Tried aggregator 1 time.
MIP Presolve eliminated 595 rows and 0 columns.
MIP Presolve added 1190 rows and 0 columns.
MIP Presolve modified 10 coefficients.
Reduced MIP has 2515 rows, 2985 columns, and 7755 nonzeros.
Reduced MIP has 1195 binaries, 0 generals, 0 SOSs, and 0 indicators.
Presolve time = 0.00 sec. (4.53 ticks)
Probing fixed 0 vars, tightened 5487 bounds.
Probing time = 0.01 sec. (18.38 ticks)
Tried aggregator 2 times.
Detecting symmetries...
MIP Presolve modified 1206 coefficients.
Aggregator did 10 substitutions.
Reduced MIP has 2505 rows, 2975 columns, and 7735 nonzeros.
Reduced MIP has 1195 binaries, 0 generals, 0 SOSs, and 0 indicators.
Presolve time = 0.00 sec. (6.66 ticks)
Probing fixed 0 vars, tightened 2401 bounds.
Probing time = 0.00 sec. (6.41 ticks)
Clique table members: 190.
MIP emphasis: hidden feasible solutions.
MIP search method: dynamic search.
Parallel mode: deterministic, using up to 8 threads.
Root relaxation solution time = 0.01 sec. (9.71 ticks)

        Nodes                                         Cuts/
   Node  Left     Objective  IInf  Best Integer    Best Bound    ItCnt     Gap

      0     0   348385.3466   472                 348385.3466      882         
      0     0   583577.4049   435                   Cuts: 726     1819         
      0     0   823278.6690   562                   Cuts: 726     2491         
      0     0   941547.2185   665                   Cuts: 726     3113         
*     0+    0                       1.01740e+07   941547.2185            90.75%
*     0+    0                      7973370.0000   941547.2185            88.19%
      0     0  1050590.5788   670  7973370.0000     Cuts: 726     3815   86.82%
      0     0  1101992.4568   706  7973370.0000     Cuts: 643     4368   86.18%
Detecting symmetries...
*     0+    0                      1940615.0000  1101992.4568            43.21%
      0     0  1167854.0231   708  1940615.0000     Cuts: 726     5029   39.82%
      0     0  1203593.7610   729  1940615.0000     Cuts: 648     5585   37.98%
      0     0  1220025.0861   735  1940615.0000     Cuts: 447     5990   37.13%
      0     0  1237276.2930   734  1940615.0000     Cuts: 511     6401   36.24%
      0     0  1266675.3991   774  1940615.0000     Cuts: 551     6994   34.73%
      0     0  1284566.3814   756  1940615.0000     Cuts: 490     7522   33.81%
      0     0  1292937.2493   783  1940615.0000     Cuts: 447     7928   33.37%
      0     0  1299347.8448   795  1940615.0000     Cuts: 329     8200   33.04%
      0     0  1303522.8219   781  1940615.0000     Cuts: 220     8437   32.83%
      0     0  1307829.6690   794  1940615.0000     Cuts: 212     8756   32.61%
      0     0  1311479.6848   786  1940615.0000     Cuts: 301     8977   32.42%
      0     0  1313550.4596   802  1940615.0000     Cuts: 153     9176   32.31%
      0     0  1315831.5582   804  1940615.0000     Cuts: 206     9373   32.20%
      0     0  1317156.1064   799  1940615.0000     Cuts: 153     9527   32.13%
      0     0  1318249.2716   812  1940615.0000     Cuts: 119     9639   32.07%
      0     0  1319910.3997   814  1940615.0000     Cuts: 118     9762   31.98%
      0     0  1321250.4377   819  1940615.0000     Cuts: 155     9875   31.92%
      0     0  1322234.0293   818  1940615.0000      Cuts: 55     9941   31.87%
      0     0  1322546.5894   824  1940615.0000      Cuts: 63    10008   31.85%
      0     0  1322791.2602   823  1940615.0000      Cuts: 64    10055   31.84%
*     0+    0                      1924305.0000  1322791.2602            31.26%
*     0+    0                      1921512.0000  1322791.2602            31.16%
Detecting symmetries...
      0     2  1322791.2602   823  1921512.0000  1322791.2602    10055   31.16%
Elapsed time = 5.29 sec. (8272.13 ticks, tree = 0.02 MB, solutions = 5)
     22     4  1324363.8859   790  1921512.0000  1322912.9793    10349   31.15%
     38    37  1335203.7794   770  1921512.0000  1324339.2923    15954   31.08%
     69    63  1344054.0839   737  1921512.0000  1324339.2923    24605   31.08%
    126    98  1346642.1444   691  1921512.0000  1324339.2923    29984   31.08%
    192   171  1351860.5085   701  1921512.0000  1324339.2923    39254   31.08%
    251   201  1353248.9215   692  1921512.0000  1324339.2923    42863   31.08%
    325   264  1360415.3608   633  1921512.0000  1324339.2923    50178   31.08%

Clique cuts applied:  1
Cover cuts applied:  10
Implied bound cuts applied:  27
Flow cuts applied:  490
Mixed integer rounding cuts applied:  1108
Multi commodity flow cuts applied:  41

Root node processing (before b&c):
  Real time             =    5.27 sec. (8264.83 ticks)
Parallel b&c, 8 threads:
  Real time             =    1.02 sec. (1740.52 ticks)
  Sync time (average)   =    0.13 sec.
  Wait time (average)   =    0.00 sec.
                          ------------
Total (root+branch&cut) =    6.30 sec. (10005.35 ticks)
Gap: 31.08%
Upper bound: 1.92151e+06
Lower bound: 1.32434e+06
End of CPLEX run. Time: 6.29813 seconds

===== New CPLEX run =====
Instance: /home/yorig/tuner/mpils-tests/instances/miplib/easy/lotsize.mps
Config: /scratch/yorig/mpils-results-grid-ticks-10000/easy/16proc/seed-9/4_lotsize_seed-9_20260425_202405/iterated_local_search/run_2_worker_8/ils_config_7322386671698065425.prm
========================

Selected objective sense:  MINIMIZE
Selected objective  name:  R1921
Selected RHS        name:  B
Selected bound      name:  BOUND
Version identifier: 22.1.2.0 | 2024-11-26 | 0edbb82fd
CPXPARAM_Threads                                 8
CPXPARAM_Parallel                                1
CPXPARAM_MIP_Cuts_Cliques                        1
CPXPARAM_MIP_Cuts_FlowCovers                     1
CPXPARAM_MIP_Cuts_Implied                        2
CPXPARAM_MIP_Cuts_GUBCovers                      1
CPXPARAM_MIP_Limits_GomoryCand                   50
CPXPARAM_MIP_Cuts_Gomory                         -1
CPXPARAM_MIP_Cuts_PathCut                        -1
CPXPARAM_MIP_Cuts_MIRCut                         1
CPXPARAM_MIP_Cuts_Disjunctive                    -1
CPXPARAM_Emphasis_MIP                            4
CPXPARAM_DetTimeLimit                            10000
Tried aggregator 1 time.
MIP Presolve eliminated 595 rows and 0 columns.
MIP Presolve added 1190 rows and 0 columns.
MIP Presolve modified 10 coefficients.
Reduced MIP has 2515 rows, 2985 columns, and 7755 nonzeros.
Reduced MIP has 1195 binaries, 0 generals, 0 SOSs, and 0 indicators.
Presolve time = 0.00 sec. (4.53 ticks)
Probing fixed 0 vars, tightened 5487 bounds.
Probing time = 0.01 sec. (18.38 ticks)
Tried aggregator 2 times.
Detecting symmetries...
MIP Presolve modified 1206 coefficients.
Aggregator did 10 substitutions.
Reduced MIP has 2505 rows, 2975 columns, and 7735 nonzeros.
Reduced MIP has 1195 binaries, 0 generals, 0 SOSs, and 0 indicators.
Presolve time = 0.00 sec. (6.66 ticks)
Probing fixed 0 vars, tightened 2401 bounds.
Probing time = 0.00 sec. (6.41 ticks)
Clique table members: 190.
MIP emphasis: hidden feasible solutions.
MIP search method: dynamic search.
Parallel mode: deterministic, using up to 8 threads.
Root relaxation solution time = 0.01 sec. (9.71 ticks)

        Nodes                                         Cuts/
   Node  Left     Objective  IInf  Best Integer    Best Bound    ItCnt     Gap

      0     0   348385.3466   472                 348385.3466      882         
      0     0   583577.4049   435                   Cuts: 726     1819         
      0     0   823278.6690   562                   Cuts: 726     2491         
      0     0   941547.2185   665                   Cuts: 726     3113         
*     0+    0                       1.01740e+07   941547.2185            90.75%
*     0+    0                      7973370.0000   941547.2185            88.19%
      0     0  1050590.5788   670  7973370.0000     Cuts: 726     3815   86.82%
      0     0  1101992.4568   706  7973370.0000     Cuts: 643     4368   86.18%
Detecting symmetries...
*     0+    0                      1940615.0000  1101992.4568            43.21%
      0     0  1167854.0231   708  1940615.0000     Cuts: 726     5029   39.82%
      0     0  1203593.7610   729  1940615.0000     Cuts: 648     5585   37.98%
      0     0  1220025.0861   735  1940615.0000     Cuts: 447     5990   37.13%
      0     0  1237276.2930   734  1940615.0000     Cuts: 511     6401   36.24%
      0     0  1266675.3991   774  1940615.0000     Cuts: 551     6994   34.73%
      0     0  1284566.3814   756  1940615.0000     Cuts: 490     7522   33.81%
      0     0  1292937.2493   783  1940615.0000     Cuts: 447     7928   33.37%
      0     0  1299347.8448   795  1940615.0000     Cuts: 329     8200   33.04%
      0     0  1303522.8219   781  1940615.0000     Cuts: 220     8437   32.83%
      0     0  1307829.6690   794  1940615.0000     Cuts: 212     8756   32.61%
      0     0  1311479.6848   786  1940615.0000     Cuts: 301     8977   32.42%
      0     0  1313550.4596   802  1940615.0000     Cuts: 153     9176   32.31%
      0     0  1315831.5582   804  1940615.0000     Cuts: 206     9373   32.20%
      0     0  1317156.1064   799  1940615.0000     Cuts: 153     9527   32.13%
      0     0  1318249.2716   812  1940615.0000     Cuts: 119     9639   32.07%
      0     0  1319910.3997   814  1940615.0000     Cuts: 118     9762   31.98%
      0     0  1321250.4377   819  1940615.0000     Cuts: 155     9875   31.92%
      0     0  1322234.0293   818  1940615.0000      Cuts: 55     9941   31.87%
      0     0  1322546.5894   824  1940615.0000      Cuts: 63    10008   31.85%
      0     0  1322791.2602   823  1940615.0000      Cuts: 64    10055   31.84%
*     0+    0                      1924305.0000  1322791.2602            31.26%
*     0+    0                      1921512.0000  1322791.2602            31.16%
Detecting symmetries...
      0     2  1322791.2602   823  1921512.0000  1322791.2602    10055   31.16%
Elapsed time = 5.24 sec. (8272.23 ticks, tree = 0.02 MB, solutions = 5)
     22     4  1324363.8859   790  1921512.0000  1322912.9793    10349   31.15%
     38    37  1335203.7794   770  1921512.0000  1324339.2923    15954   31.08%
     69    63  1344054.0839   737  1921512.0000  1324339.2923    24605   31.08%
    126    98  1346642.1444   691  1921512.0000  1324339.2923    29984   31.08%
    192   171  1351860.5085   701  1921512.0000  1324339.2923    39254   31.08%
    251   201  1353248.9215   692  1921512.0000  1324339.2923    42863   31.08%
    325   264  1360415.3608   633  1921512.0000  1324339.2923    50178   31.08%

GUB cover cuts applied:  0
Clique cuts applied:  1
Cover cuts applied:  10
Implied bound cuts applied:  27
Flow cuts applied:  490
Mixed integer rounding cuts applied:  1108
Multi commodity flow cuts applied:  41

Root node processing (before b&c):
  Real time             =    5.23 sec. (8264.93 ticks)
Parallel b&c, 8 threads:
  Real time             =    1.00 sec. (1740.52 ticks)
  Sync time (average)   =    0.12 sec.
  Wait time (average)   =    0.00 sec.
                          ------------
Total (root+branch&cut) =    6.23 sec. (10005.45 ticks)
Gap: 31.08%
Upper bound: 1.92151e+06
Lower bound: 1.32434e+06
End of CPLEX run. Time: 6.2348 seconds

===== New CPLEX run =====
Instance: /home/yorig/tuner/mpils-tests/instances/miplib/easy/lotsize.mps
Config: /scratch/yorig/mpils-results-grid-ticks-10000/easy/16proc/seed-9/4_lotsize_seed-9_20260425_202405/iterated_local_search/run_2_worker_8/ils_config_726602818392216141.prm
========================

Selected objective sense:  MINIMIZE
Selected objective  name:  R1921
Selected RHS        name:  B
Selected bound      name:  BOUND
Version identifier: 22.1.2.0 | 2024-11-26 | 0edbb82fd
CPXPARAM_Threads                                 8
CPXPARAM_Parallel                                1
CPXPARAM_MIP_Cuts_Cliques                        1
CPXPARAM_MIP_Cuts_FlowCovers                     1
CPXPARAM_MIP_Cuts_Implied                        2
CPXPARAM_MIP_Cuts_GUBCovers                      -1
CPXPARAM_MIP_Limits_GomoryCand                   50
CPXPARAM_MIP_Cuts_Gomory                         -1
CPXPARAM_MIP_Cuts_PathCut                        -1
CPXPARAM_MIP_Cuts_MIRCut                         1
CPXPARAM_Emphasis_MIP                            4
CPXPARAM_DetTimeLimit                            10000
Tried aggregator 1 time.
MIP Presolve eliminated 595 rows and 0 columns.
MIP Presolve added 1190 rows and 0 columns.
MIP Presolve modified 10 coefficients.
Reduced MIP has 2515 rows, 2985 columns, and 7755 nonzeros.
Reduced MIP has 1195 binaries, 0 generals, 0 SOSs, and 0 indicators.
Presolve time = 0.00 sec. (4.53 ticks)
Probing fixed 0 vars, tightened 5487 bounds.
Probing time = 0.01 sec. (18.38 ticks)
Tried aggregator 2 times.
Detecting symmetries...
MIP Presolve modified 1206 coefficients.
Aggregator did 10 substitutions.
Reduced MIP has 2505 rows, 2975 columns, and 7735 nonzeros.
Reduced MIP has 1195 binaries, 0 generals, 0 SOSs, and 0 indicators.
Presolve time = 0.01 sec. (6.66 ticks)
Probing fixed 0 vars, tightened 2401 bounds.
Probing time = 0.00 sec. (6.41 ticks)
Clique table members: 190.
MIP emphasis: hidden feasible solutions.
MIP search method: dynamic search.
Parallel mode: deterministic, using up to 8 threads.
Root relaxation solution time = 0.01 sec. (9.71 ticks)

        Nodes                                         Cuts/
   Node  Left     Objective  IInf  Best Integer    Best Bound    ItCnt     Gap

      0     0   348385.3466   472                 348385.3466      882         
      0     0   583577.4049   435                   Cuts: 726     1819         
      0     0   823278.6690   562                   Cuts: 726     2491         
      0     0   941547.2185   665                   Cuts: 726     3113         
*     0+    0                       1.01740e+07   941547.2185            90.75%
*     0+    0                      7973370.0000   941547.2185            88.19%
      0     0  1050590.5788   670  7973370.0000     Cuts: 726     3815   86.82%
      0     0  1101992.4568   706  7973370.0000     Cuts: 643     4368   86.18%
Detecting symmetries...
*     0+    0                      1940615.0000  1101992.4568            43.21%
      0     0  1167854.0231   708  1940615.0000     Cuts: 726     5029   39.82%
      0     0  1203593.7610   729  1940615.0000     Cuts: 648     5585   37.98%
      0     0  1220025.0861   735  1940615.0000     Cuts: 447     5990   37.13%
      0     0  1237276.2930   734  1940615.0000     Cuts: 511     6401   36.24%
      0     0  1266675.3991   774  1940615.0000     Cuts: 551     6994   34.73%
      0     0  1284566.3814   756  1940615.0000     Cuts: 490     7522   33.81%
      0     0  1292937.2493   783  1940615.0000     Cuts: 447     7928   33.37%
      0     0  1299347.8448   795  1940615.0000     Cuts: 329     8200   33.04%
      0     0  1303522.8219   781  1940615.0000     Cuts: 220     8437   32.83%
      0     0  1307829.6690   794  1940615.0000     Cuts: 212     8756   32.61%
      0     0  1311479.6848   786  1940615.0000     Cuts: 301     8977   32.42%
      0     0  1313550.4596   802  1940615.0000     Cuts: 153     9176   32.31%
      0     0  1315831.5582   804  1940615.0000     Cuts: 206     9373   32.20%
      0     0  1317156.1064   799  1940615.0000     Cuts: 153     9527   32.13%
      0     0  1318249.2716   812  1940615.0000     Cuts: 119     9639   32.07%
      0     0  1319910.3997   814  1940615.0000     Cuts: 118     9762   31.98%
      0     0  1321250.4377   819  1940615.0000     Cuts: 155     9875   31.92%
      0     0  1322234.0293   818  1940615.0000      Cuts: 55     9941   31.87%
      0     0  1322546.5894   824  1940615.0000      Cuts: 63    10008   31.85%
      0     0  1322791.2602   823  1940615.0000      Cuts: 64    10055   31.84%
*     0+    0                      1924305.0000  1322791.2602            31.26%
*     0+    0                      1921512.0000  1322791.2602            31.16%
Detecting symmetries...
      0     2  1322791.2602   823  1921512.0000  1322791.2602    10055   31.16%
Elapsed time = 5.29 sec. (8272.13 ticks, tree = 0.02 MB, solutions = 5)
     22     4  1324363.8859   790  1921512.0000  1322912.9793    10349   31.15%
     38    37  1335203.7794   770  1921512.0000  1324339.2923    15954   31.08%
     69    63  1344054.0839   737  1921512.0000  1324339.2923    24605   31.08%
    126    98  1346642.1444   691  1921512.0000  1324339.2923    29984   31.08%
    192   171  1351860.5085   701  1921512.0000  1324339.2923    39254   31.08%
    251   201  1353248.9215   692  1921512.0000  1324339.2923    42863   31.08%
    325   264  1360415.3608   633  1921512.0000  1324339.2923    50178   31.08%

Clique cuts applied:  1
Cover cuts applied:  10
Implied bound cuts applied:  27
Flow cuts applied:  490
Mixed integer rounding cuts applied:  1108
Multi commodity flow cuts applied:  41

Root node processing (before b&c):
  Real time             =    5.28 sec. (8264.83 ticks)
Parallel b&c, 8 threads:
  Real time             =    1.02 sec. (1740.52 ticks)
  Sync time (average)   =    0.12 sec.
  Wait time (average)   =    0.00 sec.
                          ------------
Total (root+branch&cut) =    6.30 sec. (10005.35 ticks)
Gap: 31.08%
Upper bound: 1.92151e+06
Lower bound: 1.32434e+06
End of CPLEX run. Time: 6.30505 seconds

===== New CPLEX run =====
Instance: /home/yorig/tuner/mpils-tests/instances/miplib/easy/lotsize.mps
Config: /scratch/yorig/mpils-results-grid-ticks-10000/easy/16proc/seed-9/4_lotsize_seed-9_20260425_202405/iterated_local_search/run_2_worker_8/ils_config_6573315260772589709.prm
========================

Selected objective sense:  MINIMIZE
Selected objective  name:  R1921
Selected RHS        name:  B
Selected bound      name:  BOUND
Version identifier: 22.1.2.0 | 2024-11-26 | 0edbb82fd
CPXPARAM_Threads                                 8
CPXPARAM_Parallel                                1
CPXPARAM_MIP_Cuts_Cliques                        1
CPXPARAM_MIP_Cuts_FlowCovers                     1
CPXPARAM_MIP_Cuts_Implied                        2
CPXPARAM_MIP_Cuts_GUBCovers                      -1
CPXPARAM_MIP_Limits_GomoryCand                   50
CPXPARAM_MIP_Cuts_Gomory                         -1
CPXPARAM_MIP_Cuts_PathCut                        2
CPXPARAM_MIP_Cuts_MIRCut                         1
CPXPARAM_MIP_Cuts_Disjunctive                    -1
CPXPARAM_Emphasis_MIP                            4
CPXPARAM_DetTimeLimit                            10000
Tried aggregator 1 time.
MIP Presolve eliminated 595 rows and 0 columns.
MIP Presolve added 1190 rows and 0 columns.
MIP Presolve modified 10 coefficients.
Reduced MIP has 2515 rows, 2985 columns, and 7755 nonzeros.
Reduced MIP has 1195 binaries, 0 generals, 0 SOSs, and 0 indicators.
Presolve time = 0.00 sec. (4.53 ticks)
Probing fixed 0 vars, tightened 5487 bounds.
Probing time = 0.01 sec. (18.38 ticks)
Tried aggregator 2 times.
Detecting symmetries...
MIP Presolve modified 1206 coefficients.
Aggregator did 10 substitutions.
Reduced MIP has 2505 rows, 2975 columns, and 7735 nonzeros.
Reduced MIP has 1195 binaries, 0 generals, 0 SOSs, and 0 indicators.
Presolve time = 0.00 sec. (6.66 ticks)
Probing fixed 0 vars, tightened 2401 bounds.
Probing time = 0.00 sec. (6.41 ticks)
Clique table members: 190.
MIP emphasis: hidden feasible solutions.
MIP search method: dynamic search.
Parallel mode: deterministic, using up to 8 threads.
Root relaxation solution time = 0.01 sec. (9.71 ticks)

        Nodes                                         Cuts/
   Node  Left     Objective  IInf  Best Integer    Best Bound    ItCnt     Gap

      0     0   348385.3466   472                 348385.3466      882         
      0     0   583577.4049   435                   Cuts: 726     1819         
      0     0   818290.4051   692                   Cuts: 726     2653         
*     0+    0                       1.01740e+07   818290.4051            91.96%
*     0+    0                      7973370.0000   818290.4051            89.74%
      0     0   947113.9594   686  7973370.0000     Cuts: 726     3332   88.12%
      0     0  1041522.9402   741  7973370.0000     Cuts: 726     3991   86.94%
      0     0  1104591.7104   745  7973370.0000     Cuts: 726     4646   86.15%
Detecting symmetries...
*     0+    0                      1940615.0000  1104591.7104            43.08%
      0     0  1147736.4040   739  1940615.0000     Cuts: 666     5259   40.86%
      0     0  1194465.8498   772  1940615.0000     Cuts: 726     5901   38.45%
      0     0  1220731.8445   728  1940615.0000     Cuts: 660     6435   37.10%
      0     0  1238440.3055   743  1940615.0000     Cuts: 515     6954   36.18%
      0     0  1250054.1736   774  1940615.0000     Cuts: 437     7394   35.58%
      0     0  1258330.3348   799  1940615.0000     Cuts: 391     7733   35.16%
      0     0  1266683.3850   816  1940615.0000     Cuts: 324     8061   34.73%
      0     0  1273373.1938   818  1940615.0000     Cuts: 395     8378   34.38%
      0     0  1277477.8474   829  1940615.0000     Cuts: 321     8659   34.17%
      0     0  1281630.4986   823  1940615.0000     Cuts: 306     8896   33.96%
      0     0  1285158.5590   836  1940615.0000     Cuts: 223     9133   33.78%
      0     0  1287844.8265   829  1940615.0000     Cuts: 222     9347   33.64%
      0     0  1290830.4513   834  1940615.0000     Cuts: 180     9512   33.48%
      0     0  1294040.0268   837  1940615.0000     Cuts: 261     9689   33.32%
      0     0  1295959.5289   833  1940615.0000     Cuts: 157     9809   33.22%
      0     0  1298389.2968   827  1940615.0000     Cuts: 142     9955   33.09%
      0     0  1300348.5280   840  1940615.0000     Cuts: 177    10098   32.99%
      0     0  1301670.2886   821  1940615.0000     Cuts: 113    10220   32.92%
      0     0  1302690.7844   840  1940615.0000     Cuts: 113    10359   32.87%
*     0+    0                      1888666.0000  1302690.7844            31.03%
      0     0  1303868.9589   829  1888666.0000      Cuts: 97    10453   30.96%
      0     0  1304595.6572   832  1888666.0000      Cuts: 92    10529   30.93%
      0     0  1305192.1005   821  1888666.0000      Cuts: 72    10614   30.89%
      0     0  1305719.6045   821  1888666.0000      Cuts: 64    10672   30.87%
      0     0  1306360.5116   806  1888666.0000      Cuts: 49    10733   30.83%
      0     0  1306687.3387   816  1888666.0000      Cuts: 38    10791   30.81%
      0     0  1307265.1037   826  1888666.0000      Cuts: 31    10845   30.78%
      0     0  1307401.1964   840  1888666.0000      Cuts: 43    10887   30.78%
*     0+    0                      1888450.0000  1307401.1964            30.77%
*     0+    0                      1886970.0000  1307401.1964            30.71%
Detecting symmetries...
      0     2  1307401.1964   840  1886970.0000  1317171.2167    10887   30.20%
Elapsed time = 5.46 sec. (8682.01 ticks, tree = 0.02 MB, solutions = 6)
     10    11  1313326.0221   794  1886970.0000  1317171.2167    12277   30.20%
     26    24  1320838.2678   725  1886970.0000  1317171.2167    13984   30.20%
     59    41  1312648.5811   754  1886970.0000  1317171.2167    16685   30.20%
    102    96  1316109.0618   760  1886970.0000  1317171.2167    25474   30.20%
    167   140  1317397.8097   687  1886970.0000  1317171.2167    31541   30.20%

Clique cuts applied:  1
Cover cuts applied:  10
Implied bound cuts applied:  30
Flow cuts applied:  498
Mixed integer rounding cuts applied:  1034
Flow path cuts applied:  41
Multi commodity flow cuts applied:  36

Root node processing (before b&c):
  Real time             =    5.45 sec. (8674.79 ticks)
Parallel b&c, 8 threads:
  Real time             =    0.75 sec. (1328.36 ticks)
  Sync time (average)   =    0.09 sec.
  Wait time (average)   =    0.00 sec.
                          ------------
Total (root+branch&cut) =    6.19 sec. (10003.15 ticks)
Gap: 30.2%
Upper bound: 1.88697e+06
Lower bound: 1.31717e+06
End of CPLEX run. Time: 6.19461 seconds

===== New CPLEX run =====
Instance: /home/yorig/tuner/mpils-tests/instances/miplib/easy/lotsize.mps
Config: /scratch/yorig/mpils-results-grid-ticks-10000/easy/16proc/seed-9/4_lotsize_seed-9_20260425_202405/iterated_local_search/run_2_worker_8/ils_config_1121712918865378367.prm
========================

Selected objective sense:  MINIMIZE
Selected objective  name:  R1921
Selected RHS        name:  B
Selected bound      name:  BOUND
Version identifier: 22.1.2.0 | 2024-11-26 | 0edbb82fd
CPXPARAM_Threads                                 8
CPXPARAM_Parallel                                1
CPXPARAM_MIP_Cuts_FlowCovers                     1
CPXPARAM_MIP_Cuts_Implied                        2
CPXPARAM_MIP_Cuts_GUBCovers                      -1
CPXPARAM_MIP_Limits_GomoryCand                   50
CPXPARAM_MIP_Cuts_Gomory                         -1
CPXPARAM_MIP_Cuts_PathCut                        2
CPXPARAM_MIP_Cuts_MIRCut                         1
CPXPARAM_MIP_Cuts_Disjunctive                    -1
CPXPARAM_Emphasis_MIP                            4
CPXPARAM_DetTimeLimit                            10000
Tried aggregator 1 time.
MIP Presolve eliminated 595 rows and 0 columns.
MIP Presolve added 1190 rows and 0 columns.
MIP Presolve modified 10 coefficients.
Reduced MIP has 2515 rows, 2985 columns, and 7755 nonzeros.
Reduced MIP has 1195 binaries, 0 generals, 0 SOSs, and 0 indicators.
Presolve time = 0.00 sec. (4.53 ticks)
Probing fixed 0 vars, tightened 5487 bounds.
Probing time = 0.01 sec. (18.38 ticks)
Tried aggregator 2 times.
Detecting symmetries...
MIP Presolve modified 1206 coefficients.
Aggregator did 10 substitutions.
Reduced MIP has 2505 rows, 2975 columns, and 7735 nonzeros.
Reduced MIP has 1195 binaries, 0 generals, 0 SOSs, and 0 indicators.
Presolve time = 0.00 sec. (6.66 ticks)
Probing fixed 0 vars, tightened 2401 bounds.
Probing time = 0.00 sec. (6.41 ticks)
Clique table members: 190.
MIP emphasis: hidden feasible solutions.
MIP search method: dynamic search.
Parallel mode: deterministic, using up to 8 threads.
Root relaxation solution time = 0.01 sec. (9.71 ticks)

        Nodes                                         Cuts/
   Node  Left     Objective  IInf  Best Integer    Best Bound    ItCnt     Gap

      0     0   348385.3466   472                 348385.3466      882         
      0     0   583577.4049   435                   Cuts: 726     1819         
      0     0   818290.4051   692                   Cuts: 726     2653         
*     0+    0                       1.01740e+07   818290.4051            91.96%
*     0+    0                      7973370.0000   818290.4051            89.74%
      0     0   947113.9594   686  7973370.0000     Cuts: 726     3332   88.12%
      0     0  1041522.9402   741  7973370.0000     Cuts: 726     3991   86.94%
      0     0  1104591.7104   745  7973370.0000     Cuts: 726     4646   86.15%
Detecting symmetries...
*     0+    0                      1940615.0000  1104591.7104            43.08%
      0     0  1147736.4040   739  1940615.0000     Cuts: 666     5259   40.86%
      0     0  1194465.8498   772  1940615.0000     Cuts: 726     5901   38.45%
      0     0  1220731.8445   728  1940615.0000     Cuts: 660     6435   37.10%
      0     0  1238440.3055   743  1940615.0000     Cuts: 515     6954   36.18%
      0     0  1250054.1736   774  1940615.0000     Cuts: 437     7394   35.58%
      0     0  1258330.3348   799  1940615.0000     Cuts: 391     7733   35.16%
      0     0  1266683.3850   816  1940615.0000     Cuts: 324     8061   34.73%
      0     0  1273373.1938   818  1940615.0000     Cuts: 395     8378   34.38%
      0     0  1277477.8474   829  1940615.0000     Cuts: 321     8659   34.17%
      0     0  1281630.4986   823  1940615.0000     Cuts: 306     8896   33.96%
      0     0  1285158.5590   836  1940615.0000     Cuts: 223     9133   33.78%
      0     0  1287844.8265   829  1940615.0000     Cuts: 222     9347   33.64%
      0     0  1290830.4513   834  1940615.0000     Cuts: 180     9512   33.48%
      0     0  1294040.0268   837  1940615.0000     Cuts: 261     9689   33.32%
      0     0  1295959.5289   833  1940615.0000     Cuts: 157     9809   33.22%
      0     0  1298389.2968   827  1940615.0000     Cuts: 142     9955   33.09%
      0     0  1300348.5280   840  1940615.0000     Cuts: 177    10098   32.99%
      0     0  1301670.2886   821  1940615.0000     Cuts: 113    10220   32.92%
      0     0  1302690.7844   840  1940615.0000     Cuts: 113    10359   32.87%
*     0+    0                      1888666.0000  1302690.7844            31.03%
      0     0  1303868.9589   829  1888666.0000      Cuts: 97    10453   30.96%
      0     0  1304595.6572   832  1888666.0000      Cuts: 92    10529   30.93%
      0     0  1305192.1005   821  1888666.0000      Cuts: 72    10614   30.89%
      0     0  1305719.6045   821  1888666.0000      Cuts: 64    10672   30.87%
      0     0  1306360.5116   806  1888666.0000      Cuts: 49    10733   30.83%
      0     0  1306687.3387   816  1888666.0000      Cuts: 38    10791   30.81%
      0     0  1307265.1037   826  1888666.0000      Cuts: 31    10845   30.78%
      0     0  1307401.1964   840  1888666.0000      Cuts: 43    10887   30.78%
*     0+    0                      1888450.0000  1307401.1964            30.77%
*     0+    0                      1886970.0000  1307401.1964            30.71%
Detecting symmetries...
      0     2  1307401.1964   840  1886970.0000  1317171.2167    10887   30.20%
Elapsed time = 5.50 sec. (8682.01 ticks, tree = 0.02 MB, solutions = 6)
     10    11  1313326.0221   794  1886970.0000  1317171.2167    12277   30.20%
     26    24  1320838.2678   725  1886970.0000  1317171.2167    13984   30.20%
     59    41  1312648.5811   754  1886970.0000  1317171.2167    16685   30.20%
    102    96  1316109.0618   760  1886970.0000  1317171.2167    25474   30.20%
    167   140  1317397.8097   687  1886970.0000  1317171.2167    31541   30.20%

Clique cuts applied:  1
Cover cuts applied:  10
Implied bound cuts applied:  30
Flow cuts applied:  498
Mixed integer rounding cuts applied:  1034
Flow path cuts applied:  41
Multi commodity flow cuts applied:  36

Root node processing (before b&c):
  Real time             =    5.48 sec. (8674.79 ticks)
Parallel b&c, 8 threads:
  Real time             =    0.72 sec. (1328.36 ticks)
  Sync time (average)   =    0.09 sec.
  Wait time (average)   =    0.00 sec.
                          ------------
Total (root+branch&cut) =    6.20 sec. (10003.15 ticks)
Gap: 30.2%
Upper bound: 1.88697e+06
Lower bound: 1.31717e+06
End of CPLEX run. Time: 6.20553 seconds
